p cnf 20 48
c inputs: 1 2 3 4
c variables for gates: 5 ... 16
c outputs: 17 18 19 20
c random input: -1 2 3 4
5 -1 -3 0
-5 1 0
-5 3 0
6 -2 -3 0
-6 2 0
-6 3 0
7 -1 -4 0
-7 1 0
-7 4 0
8 -2 -4 0
-8 2 0
-8 4 0
9 -6 7 0
-9 6 0
-9 -7 0
10 -7 6 0
-10 7 0
-10 -6 0
11 10 9 0
-11 -10 0
-11 -9 0
12 -6 -7 0
-12 6 0
-12 7 0
13 8 -12 0
-13 -8 0
-13 12 0
14 -8 12 0
-14 8 0
-14 -12 0
15 13 14 0
-15 -13 0
-15 -14 0
16 -8 -12 0
-16 8 0
-16 12 0
-17 5 0
17 -5 0
-18 -11 0
18 11 0
-19 -15 0
19 15 0
-20 16 0
20 -16 0
-17 0
18 0
19 0
-20 0
